c File: instances/36_0.20_1.col
c
c Description: Random graph of size 36 vertices and P(0.2) of edges between any two vertices.
p col 36 630
e 1 5
e 1 8
e 1 13
e 1 18
e 1 25
e 1 28
e 1 33
e 2 4
e 2 12
e 2 20
e 2 21
e 2 25
e 2 30
e 2 32
e 3 6
e 3 8
e 3 11
e 3 18
e 3 19
e 3 20
e 3 21
e 3 22
e 3 36
e 4 7
e 4 9
e 4 15
e 4 16
e 4 23
e 4 29
e 4 32
e 4 33
e 4 35
e 5 12
e 5 18
e 5 26
e 5 28
e 5 34
e 5 36
e 6 10
e 6 14
e 6 16
e 6 17
e 6 24
e 6 27
e 7 8
e 7 9
e 7 10
e 7 12
e 7 13
e 7 22
e 7 24
e 8 9
e 8 16
e 8 27
e 8 36
e 10 16
e 10 19
e 10 20
e 10 24
e 10 35
e 11 12
e 11 13
e 11 19
e 11 20
e 11 25
e 11 27
e 11 34
e 12 20
e 12 21
e 12 29
e 12 30
e 12 36
e 13 17
e 13 18
e 13 22
e 13 24
e 13 32
e 13 33
e 13 34
e 14 16
e 14 20
e 14 22
e 14 27
e 14 29
e 14 34
e 14 35
e 15 19
e 15 27
e 15 33
e 16 24
e 16 25
e 16 28
e 16 33
e 16 34
e 17 23
e 18 23
e 18 27
e 18 32
e 19 26
e 19 30
e 19 33
e 20 22
e 20 25
e 20 26
e 20 27
e 21 25
e 21 27
e 21 28
e 21 30
e 21 32
e 22 25
e 22 26
e 22 27
e 22 31
e 23 26
e 23 27
e 23 28
e 23 31
e 24 26
e 24 29
e 24 30
e 25 27
e 25 31
e 25 33
e 26 27
e 27 29
e 28 33
e 31 32
e 32 33
e 34 35